39805.97 0
352 351 350 349 348 347 346 345 344 343 342 330 331 332 340 341 339 338 337 336 333 335 334 283 284 285 286 287 280 281 282 279 278 277 276 288 289 290 291 292 275 274 273 272 271 268 269 270 293 294 295 296 267 266 265 264 263 262 261 255 253 254 252 251 250 249 248 256 257 260 259 258 299 298 297 321 320 319 300 241 242 243 244 245 247 246 216 217 215 214 213 212 211 210 209 194 195 196 205 206 207 208 203 204 202 201 200 199 198 197 184 183 185 186 188 187 540 538 539 537 536 484 485 486 487 535 534 488 489 531 532 533 231 230 229 228 227 189 225 226 190 191 192 193 219 218 220 221 222 224 223 232 234 233 530 529 490 491 492 526 527 514 517 516 515 509 510 511 513 512 528 235 236 237 238 239 240 301 302 508 507 506 505 504 503 502 498 497 519 518 495 494 520 521 522 523 525 524 493 483 482 481 480 479 478 477 476 475 567 566 565 564 563 562 561 560 549 548 550 559 558 557 41 556 554 553 552 551 101 100 102 99 98 97 94 95 96 105 104 103 547 546 545 544 543 541 542 173 174 176 177 178 182 181 179 180 169 170 171 175 172 108 109 107 106 117 116 115 114 110 111 112 113 161 162 168 163 167 166 164 165 154 160 155 156 159 157 153 147 148 152 149 150 151 141 142 143 144 146 145 158 134 133 132 131 130 129 137 135 136 140 139 138 128 127 126 125 124 69 70 68 67 66 65 72 71 123 122 121 120 118 119 73 74 75 76 77 78 62 64 63 60 61 79 80 81 59 58 57 82 83 84 85 86 87 88 89 90 93 92 91 50 51 52 54 53 56 55 49 48 47 46 555 45 44 43 42 39 40 38 37 36 35 34 33 32 30 31 29 28 27 26 25 24 21 22 23 12 13 14 15 16 11 10 9 7 8 17 18 19 20 568 569 570 474 473 472 471 470 496 464 465 469 468 467 466 571 573 572 6 5 0 4 3 2 1 458 457 456 455 454 439 443 436 438 437 435 434 433 432 430 431 445 444 442 446 447 448 449 450 441 440 453 452 461 459 460 463 462 499 500 501 451 311 312 313 310 309 308 307 303 304 306 305 318 317 316 314 315 374 373 372 322 323 324 325 326 327 328 329 366 367 365 368 369 370 371 396 394 395 375 376 377 378 379 380 381 392 393 391 390 389 388 387 385 409 408 407 406 405 404 400 399 397 398 364 363 362 361 358 359 360 401 403 402 356 412 411 418 410 384 383 386 382 425 424 426 428 429 427 423 422 421 420 419 417 416 415 414 413 353 354 355 357